1241383
35,83,88,38,87,45,86,81,14,39,84,22,52,24,43,65,54,90,59,19,26,79,40,29,12,17,94,51,78,25,73,92,7,4,66,95,47,9,57,33,74,32,72,44,91,53,8,89,85,5,2,3,64,27,46,28,34,71,23,11,98,76,80,48,37,60,10,49,62,77,20,30,70,1,99,50,61,67,82,16,58,15,36,68,63,13,93,31,21,96,18,69,75,41,6,56,55,42,97